p tw 20 53
0 1
0 4
0 13
0 3
0 12
0 11
0 10
0 15
1 9
1 17
1 16
1 7
2 3
2 8
2 13
3 5
3 10
3 11
3 4
4 16
4 13
5 6
5 14
5 11
5 15
5 10
6 18
6 13
7 8
7 15
7 9
7 14
8 16
8 15
8 19
8 13
8 17
9 10
9 16
9 15
10 14
10 12
11 12
11 13
11 19
13 15
13 17
13 18
14 19
15 19
15 18
15 16
16 18
